p cnf 18 22
8 9 -2 12 -15 -4 5 0
-18 16 -11 0
4 -3 18 -14 -2 0
-16 17 2 -12 13 -5 9 18 -15 0
4 -15 -10 -3 18 -13 5 -11 0
14 -1 4 -15 -17 12 -6 0
3 16 8 1 15 18 9 -2 10 0
14 15 -12 16 11 -9 -13 0
9 -17 15 0
9 -7 -3 8 -14 17 12 2 0
-3 -11 2 17 -10 0
18 9 -10 11 7 6 -13 -14 0
-18 9 -7 14 -10 0
17 -18 8 2 1 13 5 0
-14 18 -5 16 -6 -1 -10 9 0
16 13 -5 6 -10 -9 0
14 17 4 0
3 -1 13 -12 0
-12 -16 -1 5 -18 14 -3 11 0
-6 -7 -12 -1 8 9 3 2 0
6 4 17 -16 5 12 -9 0
-10 15 2 -11 0
